WARNING: for repeatability, setting FPU to use double precision
============================[ Problem Statistics ]=============================
|                                                                             |
|  Number of variables:        223143                                         |
|  Number of clauses:          501500                                         |
|  Parse time:                   0.16 s                                       |
|                                                                             |
============================[ Search Statistics ]==============================
| Conflicts |          ORIGINAL         |          LEARNT          | Progress |
|           |    Vars  Clauses Literals |    Limit  Clauses Lit/Cl |          |
===============================================================================
|       100 |  120772   477734  1075640 |   175169      100     16 | 45.877 % |
|       250 |  120772   477734  1075640 |   192686      250     19 | 45.877 % |
|       475 |  120772   477734  1075640 |   211954      475     27 | 45.877 % |
|       812 |  120772   477734  1075640 |   233150      812     45 | 45.877 % |
|      1318 |  120772   477734  1075640 |   256465     1318     49 | 45.877 % |
|      2077 |  120772   477734  1075640 |   282111     2077     42 | 45.877 % |
|      3216 |  120772   477734  1075640 |   310322     3216     47 | 45.877 % |
|      4924 |  120772   477734  1075640 |   341355     4924     47 | 45.877 % |
===============================================================================
restarts              : 31
conflicts             : 7054           (1848 /sec)
decisions             : 100759         (0.00 % random) (26403 /sec)
propagations          : 20792125       (5448330 /sec)
conflict literals     : 337449         (7.80 % deleted)
Memory used           : 61.00 MB
CPU time              : 3.81624 s

SATISFIABLE
